100 10
13 80
71 69
98 85
34 74
24 58
94 97
96 35
21 5
13 99
42 5
70 73
95 99
45 2
33 2
84 55
67 58
47 84
22 42
54 29
2 81
42 18
3 23
15 30
82 28
26 92
68 55
37 100
29 64
49 13
27 66
67 97
76 51
4 35
70 83
98 9
24 83
78 73
27 81
74 92
27 13
4 31
14 41
40 71
87 3
22 67
72 67
8 71
23 84
29 33
41 88
52 69
39 45
11 26
10 28
22 67
35 90
16 64
95 3
48 28
78 11
22 45
20 12
37 5
11 55
30 11
14 26
47 42
54 46
6 32
82 70
52 24
90 37
32 79
76 2
86 55
19 2
8 51
11 85
54 69
93 69
44 27
43 63
48 41
92 74
83 40
71 57
83 62
18 69
72 51
18 11
79 80
83 40
92 87
80 78
44 68
72 75
55 50
67 99
33 31
29 39
535 644
620 695
401 474
422 514
407 466
408 478
419 512
502 623
400 459
562 672
